
(set-option :produce-models true)
(set-option :inline-size-limit 10000)

(declare-const var0 String)

(push 1)
(assert (str.in.re var0 (re.* (re.range "\x01" "\xff"))))
(assert (str.in.re var0 (re.++ (re.++ re.begin-anchor (re.++ ((_ re.capture 1) (re.union (re.union ((_ re.capture 2) (re.++ (str.to.re "A") (re.opt ((_ re.capture 3) ((_ re.capture 4) (re.union (re.union ((_ re.capture 5) (re.++ (str.to.re "H") (re.union (str.to.re "M") (str.to.re "X")))) ((_ re.capture 6) (re.++ (str.to.re "M") ((_ re.capture 7) (re.union (str.to.re "P") (re.++ (str.to.re "S") (str.to.re "N"))))))) ((_ re.capture 8) (re.++ (str.to.re "X") (re.opt ((_ re.capture 9) (re.union ((_ re.capture 10) (re.++ (str.to.re "D") (re.union (str.to.re "A") (re.union (str.to.re "C") (str.to.re "H"))))) ((_ re.capture 11) (re.++ (str.to.re "M") (re.union (str.to.re "D") (str.to.re "S"))))))))))))))) ((_ re.capture 12) (re.++ (str.to.re "K") (re.++ (str.to.re "7") (re.opt ((_ re.capture 13) (str.to.re "A"))))))) ((_ re.capture 14) (re.++ (str.to.re "D") (re.opt ((_ re.capture 15) (re.++ (str.to.re "H") (re.union (str.to.re "D") (re.union (str.to.re "L") (str.to.re "M")))))))))) (re.++ ((_ re.capture 16) ((_ re.loop 3 4) (re.range "0" "9"))) (re.++ (re.union (str.to.re "A") (re.union (str.to.re "B") (re.range "D" "G"))) (re.++ (re.union (str.to.re "C") (re.union (str.to.re "H") (re.union (str.to.re "J") (re.union (re.range "K" "N") (re.union (str.to.re "P") (re.union (str.to.re "Q") (re.range "T" "Y"))))))) (re.++ (re.union (re.range "Q" "T") (str.to.re "V")) (re.++ (re.range "1" "4") (re.range "B" "E")))))))) re.end-anchor)))	; match!==null
(assert (not (str.in.re ((_ str.extract 1) var0 (re.++ (re.++ re.begin-anchor (re.++ ((_ re.capture 1) (re.union (re.union ((_ re.capture 2) (re.++ (str.to.re "A") (re.opt ((_ re.capture 3) ((_ re.capture 4) (re.union (re.union ((_ re.capture 5) (re.++ (str.to.re "H") (re.union (str.to.re "M") (str.to.re "X")))) ((_ re.capture 6) (re.++ (str.to.re "M") ((_ re.capture 7) (re.union (str.to.re "P") (re.++ (str.to.re "S") (str.to.re "N"))))))) ((_ re.capture 8) (re.++ (str.to.re "X") (re.opt ((_ re.capture 9) (re.union ((_ re.capture 10) (re.++ (str.to.re "D") (re.union (str.to.re "A") (re.union (str.to.re "C") (str.to.re "H"))))) ((_ re.capture 11) (re.++ (str.to.re "M") (re.union (str.to.re "D") (str.to.re "S"))))))))))))))) ((_ re.capture 12) (re.++ (str.to.re "K") (re.++ (str.to.re "7") (re.opt ((_ re.capture 13) (str.to.re "A"))))))) ((_ re.capture 14) (re.++ (str.to.re "D") (re.opt ((_ re.capture 15) (re.++ (str.to.re "H") (re.union (str.to.re "D") (re.union (str.to.re "L") (str.to.re "M")))))))))) (re.++ ((_ re.capture 16) ((_ re.loop 3 4) (re.range "0" "9"))) (re.++ (re.union (str.to.re "A") (re.union (str.to.re "B") (re.range "D" "G"))) (re.++ (re.union (str.to.re "C") (re.union (str.to.re "H") (re.union (str.to.re "J") (re.union (re.range "K" "N") (re.union (str.to.re "P") (re.union (str.to.re "Q") (re.range "T" "Y"))))))) (re.++ (re.union (re.range "Q" "T") (str.to.re "V")) (re.++ (re.range "1" "4") (re.range "B" "E")))))))) re.end-anchor)) (str.to.re "\x00"))))
;match[1]!==null
(assert (str.in.re ((_ str.extract 1) var0 (re.++ (re.++ re.begin-anchor (re.++ ((_ re.capture 1) (re.union (re.union ((_ re.capture 2) (re.++ (str.to.re "A") (re.opt ((_ re.capture 3) ((_ re.capture 4) (re.union (re.union ((_ re.capture 5) (re.++ (str.to.re "H") (re.union (str.to.re "M") (str.to.re "X")))) ((_ re.capture 6) (re.++ (str.to.re "M") ((_ re.capture 7) (re.union (str.to.re "P") (re.++ (str.to.re "S") (str.to.re "N"))))))) ((_ re.capture 8) (re.++ (str.to.re "X") (re.opt ((_ re.capture 9) (re.union ((_ re.capture 10) (re.++ (str.to.re "D") (re.union (str.to.re "A") (re.union (str.to.re "C") (str.to.re "H"))))) ((_ re.capture 11) (re.++ (str.to.re "M") (re.union (str.to.re "D") (str.to.re "S"))))))))))))))) ((_ re.capture 12) (re.++ (str.to.re "K") (re.++ (str.to.re "7") (re.opt ((_ re.capture 13) (str.to.re "A"))))))) ((_ re.capture 14) (re.++ (str.to.re "D") (re.opt ((_ re.capture 15) (re.++ (str.to.re "H") (re.union (str.to.re "D") (re.union (str.to.re "L") (str.to.re "M")))))))))) (re.++ ((_ re.capture 16) ((_ re.loop 3 4) (re.range "0" "9"))) (re.++ (re.union (str.to.re "A") (re.union (str.to.re "B") (re.range "D" "G"))) (re.++ (re.union (str.to.re "C") (re.union (str.to.re "H") (re.union (str.to.re "J") (re.union (re.range "K" "N") (re.union (str.to.re "P") (re.union (str.to.re "Q") (re.range "T" "Y"))))))) (re.++ (re.union (re.range "Q" "T") (str.to.re "V")) (re.++ (re.range "1" "4") (re.range "B" "E")))))))) re.end-anchor)) (re.++ re.all(re.+ (re.range "a" "z")) re.all) ))
;/[a-z]+/.test(match[1]) == true
(check-sat)
(get-model)
(pop 1)
(push 1)
(assert (str.in.re var0 (re.* (re.range "\x01" "\xff"))))
(assert (str.in.re var0 (re.++ (re.++ re.begin-anchor (re.++ ((_ re.capture 1) (re.union (re.union ((_ re.capture 2) (re.++ (str.to.re "A") (re.opt ((_ re.capture 3) ((_ re.capture 4) (re.union (re.union ((_ re.capture 5) (re.++ (str.to.re "H") (re.union (str.to.re "M") (str.to.re "X")))) ((_ re.capture 6) (re.++ (str.to.re "M") ((_ re.capture 7) (re.union (str.to.re "P") (re.++ (str.to.re "S") (str.to.re "N"))))))) ((_ re.capture 8) (re.++ (str.to.re "X") (re.opt ((_ re.capture 9) (re.union ((_ re.capture 10) (re.++ (str.to.re "D") (re.union (str.to.re "A") (re.union (str.to.re "C") (str.to.re "H"))))) ((_ re.capture 11) (re.++ (str.to.re "M") (re.union (str.to.re "D") (str.to.re "S"))))))))))))))) ((_ re.capture 12) (re.++ (str.to.re "K") (re.++ (str.to.re "7") (re.opt ((_ re.capture 13) (str.to.re "A"))))))) ((_ re.capture 14) (re.++ (str.to.re "D") (re.opt ((_ re.capture 15) (re.++ (str.to.re "H") (re.union (str.to.re "D") (re.union (str.to.re "L") (str.to.re "M")))))))))) (re.++ ((_ re.capture 16) ((_ re.loop 3 4) (re.range "0" "9"))) (re.++ (re.union (str.to.re "A") (re.union (str.to.re "B") (re.range "D" "G"))) (re.++ (re.union (str.to.re "C") (re.union (str.to.re "H") (re.union (str.to.re "J") (re.union (re.range "K" "N") (re.union (str.to.re "P") (re.union (str.to.re "Q") (re.range "T" "Y"))))))) (re.++ (re.union (re.range "Q" "T") (str.to.re "V")) (re.++ (re.range "1" "4") (re.range "B" "E")))))))) re.end-anchor)))	; match!==null
(assert (not (str.in.re ((_ str.extract 1) var0 (re.++ (re.++ re.begin-anchor (re.++ ((_ re.capture 1) (re.union (re.union ((_ re.capture 2) (re.++ (str.to.re "A") (re.opt ((_ re.capture 3) ((_ re.capture 4) (re.union (re.union ((_ re.capture 5) (re.++ (str.to.re "H") (re.union (str.to.re "M") (str.to.re "X")))) ((_ re.capture 6) (re.++ (str.to.re "M") ((_ re.capture 7) (re.union (str.to.re "P") (re.++ (str.to.re "S") (str.to.re "N"))))))) ((_ re.capture 8) (re.++ (str.to.re "X") (re.opt ((_ re.capture 9) (re.union ((_ re.capture 10) (re.++ (str.to.re "D") (re.union (str.to.re "A") (re.union (str.to.re "C") (str.to.re "H"))))) ((_ re.capture 11) (re.++ (str.to.re "M") (re.union (str.to.re "D") (str.to.re "S"))))))))))))))) ((_ re.capture 12) (re.++ (str.to.re "K") (re.++ (str.to.re "7") (re.opt ((_ re.capture 13) (str.to.re "A"))))))) ((_ re.capture 14) (re.++ (str.to.re "D") (re.opt ((_ re.capture 15) (re.++ (str.to.re "H") (re.union (str.to.re "D") (re.union (str.to.re "L") (str.to.re "M")))))))))) (re.++ ((_ re.capture 16) ((_ re.loop 3 4) (re.range "0" "9"))) (re.++ (re.union (str.to.re "A") (re.union (str.to.re "B") (re.range "D" "G"))) (re.++ (re.union (str.to.re "C") (re.union (str.to.re "H") (re.union (str.to.re "J") (re.union (re.range "K" "N") (re.union (str.to.re "P") (re.union (str.to.re "Q") (re.range "T" "Y"))))))) (re.++ (re.union (re.range "Q" "T") (str.to.re "V")) (re.++ (re.range "1" "4") (re.range "B" "E")))))))) re.end-anchor)) (str.to.re "\x00"))))	
;match[1]!==null
(assert (not (str.in.re ((_ str.extract 1) var0 (re.++ (re.++ re.begin-anchor (re.++ ((_ re.capture 1) (re.union (re.union ((_ re.capture 2) (re.++ (str.to.re "A") (re.opt ((_ re.capture 3) ((_ re.capture 4) (re.union (re.union ((_ re.capture 5) (re.++ (str.to.re "H") (re.union (str.to.re "M") (str.to.re "X")))) ((_ re.capture 6) (re.++ (str.to.re "M") ((_ re.capture 7) (re.union (str.to.re "P") (re.++ (str.to.re "S") (str.to.re "N"))))))) ((_ re.capture 8) (re.++ (str.to.re "X") (re.opt ((_ re.capture 9) (re.union ((_ re.capture 10) (re.++ (str.to.re "D") (re.union (str.to.re "A") (re.union (str.to.re "C") (str.to.re "H"))))) ((_ re.capture 11) (re.++ (str.to.re "M") (re.union (str.to.re "D") (str.to.re "S"))))))))))))))) ((_ re.capture 12) (re.++ (str.to.re "K") (re.++ (str.to.re "7") (re.opt ((_ re.capture 13) (str.to.re "A"))))))) ((_ re.capture 14) (re.++ (str.to.re "D") (re.opt ((_ re.capture 15) (re.++ (str.to.re "H") (re.union (str.to.re "D") (re.union (str.to.re "L") (str.to.re "M")))))))))) (re.++ ((_ re.capture 16) ((_ re.loop 3 4) (re.range "0" "9"))) (re.++ (re.union (str.to.re "A") (re.union (str.to.re "B") (re.range "D" "G"))) (re.++ (re.union (str.to.re "C") (re.union (str.to.re "H") (re.union (str.to.re "J") (re.union (re.range "K" "N") (re.union (str.to.re "P") (re.union (str.to.re "Q") (re.range "T" "Y"))))))) (re.++ (re.union (re.range "Q" "T") (str.to.re "V")) (re.++ (re.range "1" "4") (re.range "B" "E")))))))) re.end-anchor)) (re.++ re.all(re.+ (re.range "a" "z")) re.all) )))
;/[a-z]+/.test(match[1]) == false	
(check-sat)
(get-model)
(pop 1)
(push 1)
(assert (str.in.re var0 (re.* (re.range "\x01" "\xff"))))
(assert (str.in.re var0 (re.++ (re.++ re.begin-anchor (re.++ ((_ re.capture 1) (re.union (re.union ((_ re.capture 2) (re.++ (str.to.re "A") (re.opt ((_ re.capture 3) ((_ re.capture 4) (re.union (re.union ((_ re.capture 5) (re.++ (str.to.re "H") (re.union (str.to.re "M") (str.to.re "X")))) ((_ re.capture 6) (re.++ (str.to.re "M") ((_ re.capture 7) (re.union (str.to.re "P") (re.++ (str.to.re "S") (str.to.re "N"))))))) ((_ re.capture 8) (re.++ (str.to.re "X") (re.opt ((_ re.capture 9) (re.union ((_ re.capture 10) (re.++ (str.to.re "D") (re.union (str.to.re "A") (re.union (str.to.re "C") (str.to.re "H"))))) ((_ re.capture 11) (re.++ (str.to.re "M") (re.union (str.to.re "D") (str.to.re "S"))))))))))))))) ((_ re.capture 12) (re.++ (str.to.re "K") (re.++ (str.to.re "7") (re.opt ((_ re.capture 13) (str.to.re "A"))))))) ((_ re.capture 14) (re.++ (str.to.re "D") (re.opt ((_ re.capture 15) (re.++ (str.to.re "H") (re.union (str.to.re "D") (re.union (str.to.re "L") (str.to.re "M")))))))))) (re.++ ((_ re.capture 16) ((_ re.loop 3 4) (re.range "0" "9"))) (re.++ (re.union (str.to.re "A") (re.union (str.to.re "B") (re.range "D" "G"))) (re.++ (re.union (str.to.re "C") (re.union (str.to.re "H") (re.union (str.to.re "J") (re.union (re.range "K" "N") (re.union (str.to.re "P") (re.union (str.to.re "Q") (re.range "T" "Y"))))))) (re.++ (re.union (re.range "Q" "T") (str.to.re "V")) (re.++ (re.range "1" "4") (re.range "B" "E")))))))) re.end-anchor)))	; match!==null
(assert (str.in.re ((_ str.extract 1) var0 (re.++ (re.++ re.begin-anchor (re.++ ((_ re.capture 1) (re.union (re.union ((_ re.capture 2) (re.++ (str.to.re "A") (re.opt ((_ re.capture 3) ((_ re.capture 4) (re.union (re.union ((_ re.capture 5) (re.++ (str.to.re "H") (re.union (str.to.re "M") (str.to.re "X")))) ((_ re.capture 6) (re.++ (str.to.re "M") ((_ re.capture 7) (re.union (str.to.re "P") (re.++ (str.to.re "S") (str.to.re "N"))))))) ((_ re.capture 8) (re.++ (str.to.re "X") (re.opt ((_ re.capture 9) (re.union ((_ re.capture 10) (re.++ (str.to.re "D") (re.union (str.to.re "A") (re.union (str.to.re "C") (str.to.re "H"))))) ((_ re.capture 11) (re.++ (str.to.re "M") (re.union (str.to.re "D") (str.to.re "S"))))))))))))))) ((_ re.capture 12) (re.++ (str.to.re "K") (re.++ (str.to.re "7") (re.opt ((_ re.capture 13) (str.to.re "A"))))))) ((_ re.capture 14) (re.++ (str.to.re "D") (re.opt ((_ re.capture 15) (re.++ (str.to.re "H") (re.union (str.to.re "D") (re.union (str.to.re "L") (str.to.re "M")))))))))) (re.++ ((_ re.capture 16) ((_ re.loop 3 4) (re.range "0" "9"))) (re.++ (re.union (str.to.re "A") (re.union (str.to.re "B") (re.range "D" "G"))) (re.++ (re.union (str.to.re "C") (re.union (str.to.re "H") (re.union (str.to.re "J") (re.union (re.range "K" "N") (re.union (str.to.re "P") (re.union (str.to.re "Q") (re.range "T" "Y"))))))) (re.++ (re.union (re.range "Q" "T") (str.to.re "V")) (re.++ (re.range "1" "4") (re.range "B" "E")))))))) re.end-anchor)) (str.to.re "\x00")))
;match[1]==null
(check-sat)
(get-model)
(pop 1)
(push 1)
(assert (str.in.re var0 (re.* (re.range "\x01" "\xff"))))
(assert (not (str.in.re var0 (re.++ (re.++ re.begin-anchor (re.++ ((_ re.capture 1) (re.union (re.union ((_ re.capture 2) (re.++ (str.to.re "A") (re.opt ((_ re.capture 3) ((_ re.capture 4) (re.union (re.union ((_ re.capture 5) (re.++ (str.to.re "H") (re.union (str.to.re "M") (str.to.re "X")))) ((_ re.capture 6) (re.++ (str.to.re "M") ((_ re.capture 7) (re.union (str.to.re "P") (re.++ (str.to.re "S") (str.to.re "N"))))))) ((_ re.capture 8) (re.++ (str.to.re "X") (re.opt ((_ re.capture 9) (re.union ((_ re.capture 10) (re.++ (str.to.re "D") (re.union (str.to.re "A") (re.union (str.to.re "C") (str.to.re "H"))))) ((_ re.capture 11) (re.++ (str.to.re "M") (re.union (str.to.re "D") (str.to.re "S"))))))))))))))) ((_ re.capture 12) (re.++ (str.to.re "K") (re.++ (str.to.re "7") (re.opt ((_ re.capture 13) (str.to.re "A"))))))) ((_ re.capture 14) (re.++ (str.to.re "D") (re.opt ((_ re.capture 15) (re.++ (str.to.re "H") (re.union (str.to.re "D") (re.union (str.to.re "L") (str.to.re "M")))))))))) (re.++ ((_ re.capture 16) ((_ re.loop 3 4) (re.range "0" "9"))) (re.++ (re.union (str.to.re "A") (re.union (str.to.re "B") (re.range "D" "G"))) (re.++ (re.union (str.to.re "C") (re.union (str.to.re "H") (re.union (str.to.re "J") (re.union (re.range "K" "N") (re.union (str.to.re "P") (re.union (str.to.re "Q") (re.range "T" "Y"))))))) (re.++ (re.union (re.range "Q" "T") (str.to.re "V")) (re.++ (re.range "1" "4") (re.range "B" "E")))))))) re.end-anchor))))	; match == null
(check-sat)
(get-model)
(pop 1)
(exit)
